minizinc/sudoku_problems2/sudoku_p27.dzn
%
% sudoku_p27.dzn
% See http://www.hakank.org/minizinc/sudoku_gcc.mzn
% 
% This problem is problem 27 from
% Gecode's sudoku.cpp
% http://www.gecode.org/gecode-doc-latest/sudoku_8cpp-source.html
% 
x = array2d(1..n, 1..n, [   
% 27
 14,  _,  _, 18,  _,  _,  _, 22,  _,  _,  _,  _,  _,  _, 21,  _,  _,  _,  _, 13,  _,  _,  _, 11, 20,
 15,  _,  _, 11, 17,  9,  _, 20,  _, 10,  2,  _,  7,  _,  _, 14,  4,  _, 25,  _,  6,  _,  _, 22,  _,
  _,  6,  _, 19,  _,  _, 25, 13,  8, 15, 14,  _, 18, 22,  _,  _,  _, 20,  _,  _,  _,  5,  4,  _,  _,
 21,  _,  _,  _,  8, 14,  _,  _,  _, 18, 10,  _,  _, 17, 12,  _,  _,  _,  _,  _,  _,  _,  _,  7, 19,
  _,  _,  _,  _,  _,  7, 17,  _,  4,  _, 19, 20,  _,  _, 13, 24, 15, 12,  _,  _,  _,  _,  9, 18,  _,
  9,  _,  _,  _,  7, 10,  _,  5,  _, 11,  _, 22,  3,  4, 14,  _, 20, 13, 19,  8,  _,  _,  _,  _,  _,
  8,  _,  _,  _, 11, 13,  _,  _,  _,  _, 24,  _,  _,  7,  _,  _,  _,  _, 12, 25,  _, 14,  _,  6,  _,
  _,  1,  _,  3,  _,  _,  8,  _,  _,  _,  _, 13,  _,  _,  _,  2,  _, 22, 21,  _, 11,  _,  _,  5, 10,
  _, 14,  2,  _, 10,  _, 24,  _,  7,  _,  _,  1,  _,  _, 18,  _,  6,  5,  9,  _,  _,  8, 21, 13,  _,
 20, 15,  _,  _, 22,  2,  _,  _,  _, 25, 21,  _,  _,  _,  _,  _,  _, 10,  _, 16,  _,  _, 23,  3,  _,
  _,  _,  _,  7,  6, 23,  _,  1,  _,  _, 12, 11, 16,  _,  _,  _, 13, 25, 20,  _,  _, 24,  _, 19,  2,
  _, 19, 20,  _,  _,  _,  6, 11,  _,  9,  _,  _, 25,  _,  7,  _, 23,  _, 14, 22, 15, 13, 16,  _,  5,
 23,  _,  _,  _,  _, 16,  _, 15,  _,  8,  _,  _,  _,  _, 24, 17,  9,  _,  2,  _,  _,  _, 14,  _,  7,
  _,  _,  _,  _,  4,  _,  3,  _,  _,  _,  _, 15,  9,  _,  _,  _,  _,  _,  5,  _, 23, 12,  _, 10,  _,
 22,  _, 10,  _, 16, 21,  _, 19,  _,  _,  _,  _,  _,  _,  5,  _,  _,  4,  _,  7,  _,  9,  1,  _,  _,
 12,  _,  8, 23, 14,  _,  5,  _,  _,  6,  _,  _, 22,  _,  _,  _,  _,  _, 11, 19,  1,  7,  _,  _, 17,
  7,  _,  6,  _,  _,  _, 23, 21,  _,  4,  1,  _, 10, 12,  _, 18,  8,  _,  _,  _, 16, 19,  3,  _,  _,
  _,  _,  _,  5,  3, 25,  _, 16, 22,  2,  _, 21,  _,  _, 15,  _,  _,  _,  _,  _, 20,  _,  6,  8,  _,
 19,  _,  4,  _, 13,  _,  _, 17,  _,  _, 18, 16,  _,  _,  8, 20,  _,  _,  3,  5,  _, 23,  _, 15, 21,
 25,  _, 15,  _,  _,  _,  9,  3,  _, 13,  _,  _,  _,  _,  _, 10,  _,  1,  _,  _,  _,  _,  _,  _, 22,
  _,  _,  7,  _, 18,  _,  _,  _,  1,  _,  _,  _, 13, 15,  _,  _, 25, 19,  _,  4,  _, 22, 10,  _,  _,
  _, 20, 23,  _,  _,  _,  _,  _,  5, 17,  _,  _, 24,  _,  6,  3,  _, 14,  _,  2,  _,  _,  _,  _,  4,
  _,  _,  _,  _,  1,  _,  _,  _, 24,  _,  _, 10,  2,  _,  _, 13, 12, 17,  8, 11,  _,  _, 20, 14,  _,
  3,  _, 17, 10,  _,  6, 11, 25,  _,  _,  _,  _,  _, 19,  1,  9,  5,  7, 24,  _,  _,  2,  8,  _,  _,
  4,  2, 19, 24,  _, 18,  _,  _,  _, 20,  5, 12,  _,  _,  _,  _,  _,  _,  6,  _, 25,  _, 11,  _,  _
]);

n = 25;


